\ This file has been generated by DOcplex
\ ENCODING=ISO-8859-1
\Problem name: AMC Quadratic Optimization

Minimize
 obj: x_0 + x_1 + x_2 + x_3 + y_0 + y_1 + y_2 + y_3 + u_0 + [ 2 x_0*y_1
      + 2 x_1*y_1 + 2 x_2*y_0 + 2 x_3*y_1 + 2 x_3*y_3 ]/2
Subject To
 Constraint: 106 x_0 + 41 x_3 + 53 y_2 + 48 y_3 + 31 u_0 = 358

Bounds
 0 <= x_0 <= 1
 0 <= x_1 <= 1
 0 <= x_2 <= 1
 0 <= x_3 <= 1
 0 <= y_0 <= 1
 0 <= y_1 <= 1
 0 <= y_2 <= 1
 0 <= y_3 <= 1

Binaries
 x_0 x_1 x_2 x_3 y_0 y_1 y_2 y_3
End
